n = 50;
C = 240;
w = [496,123,143,118,106,251,432,39,46,377,139,446,358,493,198,230,445,220,436,301,71,26,233,259,313,142,440,223,498,68,354,418,14,269,248,158,170,133,494,64,500,17,137,380,20,125,330,296,171,45];
p = [496,123,143,118,106,251,432,39,46,377,139,446,358,493,198,230,445,220,436,301,71,26,233,259,313,142,440,223,498,68,354,418,14,269,248,158,170,133,494,64,500,17,137,380,20,125,330,296,171,45];
